0 0 0 0
0 1 0 2
0 2 0 0
0 3 0 0
0 4 0 3
0 5 0 10
0 6 0 8
0 7 0 12
0 8 1 15
0 9 0 7
0 10 0 12
0 11 0 11
0 12 0 19
0 13 2 8
0 14 1 14
0 15 0 15
0 16 1 5
0 17 2 19
0 18 0 28
0 19 0 18
0 20 2 22
0 21 0 21
0 22 1 21
0 23 2 17
0 24 0 27
0 25 0 26
0 26 0 29
0 27 0 29
0 28 1 29
0 29 1 35
0 30 0 34
0 31 0 37
